db/inputs/327007934251251100687647661248855472.smt2
(set-logic QF_FP)
(declare-const x0 (_ FloatingPoint 11 53))
(declare-const x1 (_ FloatingPoint 11 53))
(declare-const x2 (_ FloatingPoint 11 53))
(declare-const x3 (_ FloatingPoint 11 53))
(declare-const x4 (_ FloatingPoint 11 53))
(declare-const x5 (_ FloatingPoint 11 53))
(declare-const x6 (_ FloatingPoint 11 53))
(declare-const x7 (_ FloatingPoint 11 53))
(declare-const x8 (_ FloatingPoint 11 53))
(declare-const x9 (_ FloatingPoint 11 53))
(assert (fp.eq (fp.div RNE x3 x6) (fp.mul RNE x1 x2)))
(assert (fp.geq (fp.add RNE x6 x3) (fp.div RNE x0 x9)))
(assert (fp.leq (fp.add RNE x8 x1) (fp.mul RNE x9 x7)))
(assert (fp.gt (fp.neg x2) (fp.div RNE x0 x3)))
(assert (fp.lt (fp.div RNE x9 x7) (fp.div RNE x5 x9)))
(assert (fp.eq (fp.add RNE x4 x5) (fp.sub RNE x6 x9)))
(assert (fp.lt (fp.mul RNE x9 x2) (fp.mul RNE x1 x9)))
(assert (fp.leq (fp.add RNE x3 x1) (fp.neg x1)))
(assert (fp.leq (fp.neg x8) (fp.add RNE x7 x0)))
(assert (fp.gt (fp.neg x7) (fp.mul RNE x3 x3)))
(assert (fp.lt (fp.div RNE x1 x5) (fp.mul RNE x0 x0)))
(assert (fp.lt (fp.neg x0) (fp.div RNE x9 x4)))
(assert (fp.leq (fp.add RNE x1 x3) (fp.add RNE x5 x7)))
(check-sat)
