db/data/327007934251251100687647661248855472.z3.out
-------------------
2500.127648667
